feasible solution found by trivial heuristic after 0.4 seconds, objective value 1.182812e+10
presolving:
(round 1, fast)       45325 del vars, 1275 del conss, 0 add conss, 600 chg bounds, 0 chg sides, 0 chg coeffs, 0 upgd conss, 0 impls, 0 clqs
(round 2, fast)       45925 del vars, 1275 del conss, 0 add conss, 600 chg bounds, 0 chg sides, 0 chg coeffs, 0 upgd conss, 0 impls, 0 clqs
   (0.5s) running MILP presolver
   (0.5s) MILP presolver found nothing
(round 3, exhaustive) 45925 del vars, 1275 del conss, 0 add conss, 600 chg bounds, 0 chg sides, 0 chg coeffs, 250 upgd conss, 0 impls, 0 clqs
   (0.5s) probing: 51/600 (8.5%) - 0 fixings, 0 aggregations, 0 implications, 0 bound changes
   (0.5s) probing aborted: 50/50 successive totally useless probings
   (0.5s) symmetry computation started: requiring (bin +, int -, cont +), (fixed: bin -, int +, cont -)
   (0.5s) no symmetry present
presolving (4 rounds: 4 fast, 2 medium, 2 exhaustive):
 45925 deleted vars, 1275 deleted constraints, 0 added constraints, 600 tightened bounds, 0 added holes, 0 changed sides, 0 changed coefficients
 0 implications, 0 cliques
presolved problem has 600 variables (600 bin, 0 int, 0 impl, 0 cont) and 250 constraints
    250 constraints of type <logicor>
transformed objective value is always integral (scale: 1)
Presolving Time: 0.32

 time | node  | left  |LP iter|LP it/n|mem/heur|mdpt |vars |cons |rows |cuts |sepa|confs|strbr|  dualbound   | primalbound  |  gap   | compl. 
t 0.6s|     1 |     0 |     0 |     - | trivial|   0 | 600 | 250 |   0 |   0 |  0 |   0 |   0 | 0.000000e+00 | 3.332000e+03 |    Inf | unknown
p 0.6s|     1 |     0 |     0 |     - |   locks|   0 | 600 | 250 | 250 |   0 |  0 |   0 |   0 | 0.000000e+00 | 3.800000e+01 |    Inf | unknown
  0.6s|     1 |     0 |   416 |     - |   143M |   0 | 600 | 250 | 250 |   0 |  0 |   0 |   0 | 5.833083e+00 | 3.800000e+01 | 551.46%| unknown
r 0.6s|     1 |     0 |   416 |     - |rounding|   0 | 600 | 250 | 250 |   0 |  0 |   0 |   0 | 5.833083e+00 | 3.700000e+01 | 534.31%| unknown
r 0.6s|     1 |     0 |   416 |     - |shifting|   0 | 600 | 250 | 250 |   0 |  0 |   0 |   0 | 5.833083e+00 | 3.600000e+01 | 517.17%| unknown
i 0.6s|     1 |     0 |   416 |     - |  oneopt|   0 | 600 | 250 | 250 |   0 |  0 |   0 |   0 | 5.833083e+00 | 1.300000e+01 | 122.87%| unknown
  0.7s|     1 |     0 |   473 |     - |   147M |   0 | 600 | 250 | 251 |   1 |  1 |   0 |   0 | 5.873555e+00 | 1.300000e+01 | 121.33%| unknown
  0.7s|     1 |     0 |   473 |     - |   147M |   0 | 600 | 250 | 251 |   1 |  1 |   0 |   0 | 5.873555e+00 | 1.300000e+01 | 121.33%| unknown
  0.9s|     1 |     0 |   536 |     - |   151M |   0 | 600 | 250 | 252 |   2 |  2 |   0 |   0 | 5.885342e+00 | 1.300000e+01 | 120.89%| unknown
  0.9s|     1 |     0 |   536 |     - |   151M |   0 | 600 | 250 | 252 |   2 |  2 |   0 |   0 | 5.885342e+00 | 1.300000e+01 | 120.89%| unknown
  1.0s|     1 |     0 |   583 |     - |   154M |   0 | 600 | 250 | 253 |   3 |  3 |   0 |   0 | 5.900865e+00 | 1.300000e+01 | 120.31%| unknown
  1.0s|     1 |     0 |   583 |     - |   154M |   0 | 600 | 250 | 253 |   3 |  3 |   0 |   0 | 5.900865e+00 | 1.300000e+01 | 120.31%| unknown
  1.1s|     1 |     0 |   650 |     - |   156M |   0 | 600 | 250 | 254 |   4 |  4 |   0 |   0 | 5.923485e+00 | 1.300000e+01 | 119.47%| unknown
  1.4s|     1 |     0 |   687 |     - |   158M |   0 | 600 | 250 | 255 |   5 |  5 |   0 |   0 | 5.937173e+00 | 1.300000e+01 | 118.96%| unknown
  1.4s|     1 |     0 |   687 |     - |   158M |   0 | 600 | 250 | 255 |   5 |  5 |   0 |   0 | 5.937173e+00 | 1.300000e+01 | 118.96%| unknown
 time | node  | left  |LP iter|LP it/n|mem/heur|mdpt |vars |cons |rows |cuts |sepa|confs|strbr|  dualbound   | primalbound  |  gap   | compl. 
  1.6s|     1 |     0 |   705 |     - |   160M |   0 | 600 | 250 | 256 |   6 |  6 |   0 |   0 | 5.940180e+00 | 1.300000e+01 | 118.85%| unknown
  1.6s|     1 |     0 |   705 |     - |   160M |   0 | 600 | 250 | 256 |   6 |  6 |   0 |   0 | 5.940180e+00 | 1.300000e+01 | 118.85%| unknown
  1.8s|     1 |     0 |   719 |     - |   163M |   0 | 600 | 250 | 257 |   7 |  7 |   0 |   0 | 5.941994e+00 | 1.300000e+01 | 118.78%| unknown
  2.0s|     1 |     0 |   746 |     - |   165M |   0 | 600 | 250 | 258 |   8 |  8 |   0 |   0 | 5.949491e+00 | 1.300000e+01 | 118.51%| unknown
  2.2s|     1 |     0 |   762 |     - |   167M |   0 | 600 | 250 | 259 |   9 |  9 |   0 |   0 | 5.951241e+00 | 1.300000e+01 | 118.44%| unknown
  2.3s|     1 |     0 |   810 |     - |   170M |   0 | 600 | 250 | 260 |  10 | 10 |   0 |   0 | 5.956094e+00 | 1.300000e+01 | 118.26%| unknown
  2.3s|     1 |     0 |   842 |     - |   170M |   0 | 600 | 250 | 261 |  11 | 11 |   0 |   0 | 5.959975e+00 | 1.300000e+01 | 118.12%| unknown
  2.4s|     1 |     0 |   859 |     - |   170M |   0 | 600 | 250 | 262 |  12 | 12 |   0 |   0 | 5.960281e+00 | 1.300000e+01 | 118.11%| unknown
  2.4s|     1 |     0 |   877 |     - |   170M |   0 | 600 | 250 | 263 |  13 | 13 |   0 |   0 | 5.960428e+00 | 1.300000e+01 | 118.11%| unknown
  2.4s|     1 |     0 |   912 |     - |   170M |   0 | 600 | 250 | 264 |  14 | 14 |   0 |   0 | 5.961859e+00 | 1.300000e+01 | 118.05%| unknown
  2.5s|     1 |     0 |   923 |     - |   170M |   0 | 600 | 250 | 265 |  15 | 15 |   0 |   0 | 5.962155e+00 | 1.300000e+01 | 118.04%| unknown
  2.5s|     1 |     0 |   934 |     - |   170M |   0 | 600 | 250 | 266 |  16 | 16 |   0 |   0 | 5.962509e+00 | 1.300000e+01 | 118.03%| unknown
  2.6s|     1 |     0 |   947 |     - |   170M |   0 | 600 | 250 | 266 |  17 | 17 |   0 |   0 | 5.962882e+00 | 1.300000e+01 | 118.02%| unknown
  2.6s|     1 |     0 |   963 |     - |   170M |   0 | 600 | 250 | 267 |  18 | 18 |   0 |   0 | 5.963102e+00 | 1.300000e+01 | 118.01%| unknown
  2.6s|     1 |     0 |   968 |     - |   170M |   0 | 600 | 250 | 268 |  19 | 19 |   0 |   0 | 5.963225e+00 | 1.300000e+01 | 118.00%| unknown
 time | node  | left  |LP iter|LP it/n|mem/heur|mdpt |vars |cons |rows |cuts |sepa|confs|strbr|  dualbound   | primalbound  |  gap   | compl. 
  2.7s|     1 |     0 |   982 |     - |   170M |   0 | 600 | 250 | 269 |  20 | 20 |   0 |   0 | 5.963923e+00 | 1.300000e+01 | 117.98%| unknown
  2.7s|     1 |     0 |   991 |     - |   170M |   0 | 600 | 250 | 270 |  21 | 21 |   0 |   0 | 5.964060e+00 | 1.300000e+01 | 117.97%| unknown
  2.8s|     1 |     0 |   995 |     - |   170M |   0 | 600 | 250 | 271 |  22 | 22 |   0 |   0 | 5.964107e+00 | 1.300000e+01 | 117.97%| unknown
  2.8s|     1 |     0 |  1009 |     - |   170M |   0 | 600 | 250 | 271 |  23 | 23 |   0 |   0 | 5.964367e+00 | 1.300000e+01 | 117.96%| unknown
  2.9s|     1 |     0 |  1020 |     - |   170M |   0 | 600 | 250 | 272 |  24 | 24 |   0 |   0 | 5.964651e+00 | 1.300000e+01 | 117.95%| unknown
  2.9s|     1 |     0 |  1034 |     - |   170M |   0 | 600 | 250 | 273 |  25 | 25 |   0 |   0 | 5.964825e+00 | 1.300000e+01 | 117.94%| unknown
  3.0s|     1 |     0 |  1040 |     - |   170M |   0 | 600 | 250 | 274 |  26 | 26 |   0 |   0 | 5.964929e+00 | 1.300000e+01 | 117.94%| unknown
L 4.9s|     1 |     0 |  2245 |     - |    rens|   0 | 600 | 250 | 274 |  26 | 28 |   0 |   0 | 5.964929e+00 | 1.100000e+01 |  84.41%| unknown
(run 1, node 1) restarting after 177 global fixings of integer variables

(restart) converted 24 cuts from the global cut pool into linear constraints

presolving:
(round 1, fast)       177 del vars, 0 del conss, 0 add conss, 0 chg bounds, 0 chg sides, 10590 chg coeffs, 0 upgd conss, 0 impls, 0 clqs
   (6.9s) running MILP presolver
   (6.9s) MILP presolver found nothing
(round 2, exhaustive) 177 del vars, 0 del conss, 0 add conss, 0 chg bounds, 0 chg sides, 10590 chg coeffs, 3 upgd conss, 0 impls, 0 clqs
presolving (3 rounds: 3 fast, 2 medium, 2 exhaustive):
 177 deleted vars, 0 deleted constraints, 0 added constraints, 0 tightened bounds, 0 added holes, 0 changed sides, 10590 changed coefficients
 0 implications, 0 cliques
presolved problem has 423 variables (423 bin, 0 int, 0 impl, 0 cont) and 274 constraints
      3 constraints of type <knapsack>
     21 constraints of type <linear>
    250 constraints of type <logicor>
transformed objective value is always integral (scale: 1)
Presolving Time: 2.40
transformed 94/100 original solutions to the transformed problem space

 time | node  | left  |LP iter|LP it/n|mem/heur|mdpt |vars |cons |rows |cuts |sepa|confs|strbr|  dualbound   | primalbound  |  gap   | compl. 
  8.5s|     1 |     0 |  2776 |     - |   208M |   0 | 423 | 274 | 274 |   0 |  0 |   0 |   0 | 5.964929e+00 | 1.100000e+01 |  84.41%| unknown
  8.5s|     1 |     0 |  2776 |     - |   208M |   0 | 423 | 274 | 274 |   0 |  0 |   0 |   0 | 5.964929e+00 | 1.100000e+01 |  84.41%| unknown
  8.9s|     1 |     0 |  2818 |     - |   210M |   0 | 423 | 274 | 275 |   1 |  1 |   0 |   0 | 5.966765e+00 | 1.100000e+01 |  84.35%| unknown
  9.3s|     1 |     0 |  2849 |     - |   212M |   0 | 423 | 274 | 276 |   2 |  2 |   0 |   0 | 5.967843e+00 | 1.100000e+01 |  84.32%| unknown
  9.9s|     1 |     0 |  2871 |     - |   214M |   0 | 423 | 274 | 277 |   3 |  3 |   0 |   0 | 5.968343e+00 | 1.100000e+01 |  84.31%| unknown
 10.1s|     1 |     0 |  2888 |     - |   215M |   0 | 423 | 274 | 278 |   4 |  4 |   0 |   0 | 5.968759e+00 | 1.100000e+01 |  84.29%| unknown
 10.5s|     1 |     0 |  2943 |     - |   217M |   0 | 423 | 274 | 279 |   5 |  5 |   0 |   0 | 5.969679e+00 | 1.100000e+01 |  84.26%| unknown
 11.1s|     1 |     0 |  2963 |     - |   218M |   0 | 423 | 274 | 280 |   6 |  6 |   0 |   0 | 5.970111e+00 | 1.100000e+01 |  84.25%| unknown
 11.5s|     1 |     0 |  2987 |     - |   220M |   0 | 423 | 274 | 281 |   7 |  7 |   0 |   0 | 5.971078e+00 | 1.100000e+01 |  84.22%| unknown
 11.8s|     1 |     0 |  3008 |     - |   221M |   0 | 423 | 274 | 282 |   8 |  8 |   0 |   0 | 5.971846e+00 | 1.100000e+01 |  84.20%| unknown
 12.2s|     1 |     0 |  3023 |     - |   224M |   0 | 423 | 274 | 283 |   9 |  9 |   0 |   0 | 5.972169e+00 | 1.100000e+01 |  84.19%| unknown
 12.5s|     1 |     0 |  3040 |     - |   225M |   0 | 423 | 274 | 284 |  10 | 10 |   0 |   0 | 5.972553e+00 | 1.100000e+01 |  84.18%| unknown
 12.8s|     1 |     0 |  3059 |     - |   225M |   0 | 423 | 274 | 285 |  11 | 11 |   0 |   0 | 5.973128e+00 | 1.100000e+01 |  84.16%| unknown
 12.9s|     1 |     0 |  3080 |     - |   225M |   0 | 423 | 274 | 286 |  12 | 12 |   0 |   0 | 5.973546e+00 | 1.100000e+01 |  84.15%| unknown
 13.1s|     1 |     0 |  3096 |     - |   225M |   0 | 423 | 274 | 287 |  13 | 13 |   0 |   0 | 5.974023e+00 | 1.100000e+01 |  84.13%| unknown
 time | node  | left  |LP iter|LP it/n|mem/heur|mdpt |vars |cons |rows |cuts |sepa|confs|strbr|  dualbound   | primalbound  |  gap   | compl. 
 13.3s|     1 |     0 |  3114 |     - |   225M |   0 | 423 | 274 | 288 |  14 | 14 |   0 |   0 | 5.975510e+00 | 1.100000e+01 |  84.08%| unknown
 13.6s|     1 |     0 |  3142 |     - |   225M |   0 | 423 | 274 | 284 |  15 | 15 |   0 |   0 | 5.976349e+00 | 1.100000e+01 |  84.06%| unknown
 13.8s|     1 |     0 |  3162 |     - |   225M |   0 | 423 | 274 | 285 |  16 | 16 |   0 |   0 | 5.976963e+00 | 1.100000e+01 |  84.04%| unknown
 14.2s|     1 |     0 |  3178 |     - |   225M |   0 | 423 | 274 | 286 |  17 | 17 |   0 |   0 | 5.977206e+00 | 1.100000e+01 |  84.03%| unknown
 14.4s|     1 |     0 |  3193 |     - |   225M |   0 | 423 | 274 | 287 |  18 | 18 |   0 |   0 | 5.977717e+00 | 1.100000e+01 |  84.02%| unknown
 14.5s|     1 |     0 |  3231 |     - |   225M |   0 | 423 | 274 | 288 |  19 | 19 |   0 |   0 | 5.978688e+00 | 1.100000e+01 |  83.99%| unknown
 14.7s|     1 |     0 |  3261 |     - |   225M |   0 | 423 | 274 | 289 |  20 | 20 |   0 |   0 | 5.979728e+00 | 1.100000e+01 |  83.95%| unknown
 14.8s|     1 |     0 |  3282 |     - |   225M |   0 | 423 | 274 | 284 |  21 | 21 |   0 |   0 | 5.980760e+00 | 1.100000e+01 |  83.92%| unknown
 14.9s|     1 |     0 |  3294 |     - |   225M |   0 | 423 | 274 | 285 |  22 | 22 |   0 |   0 | 5.981878e+00 | 1.100000e+01 |  83.89%| unknown
L17.0s|     1 |     0 |  5911 |     - |    rens|   0 | 423 | 274 | 285 |  22 | 24 |   3 |   0 | 5.981878e+00 | 1.000000e+01 |  67.17%| unknown
(run 2, node 1) restarting after 138 global fixings of integer variables

(restart) converted 21 cuts from the global cut pool into linear constraints

presolving:
(round 1, fast)       138 del vars, 0 del conss, 0 add conss, 0 chg bounds, 0 chg sides, 8273 chg coeffs, 0 upgd conss, 0 impls, 0 clqs
   (18.6s) running MILP presolver
   (18.6s) MILP presolver found nothing
(round 2, exhaustive) 138 del vars, 0 del conss, 0 add conss, 0 chg bounds, 0 chg sides, 8273 chg coeffs, 19 upgd conss, 0 impls, 0 clqs
presolving (3 rounds: 3 fast, 2 medium, 2 exhaustive):
 138 deleted vars, 0 deleted constraints, 0 added constraints, 0 tightened bounds, 0 added holes, 0 changed sides, 8273 changed coefficients
 0 implications, 0 cliques
presolved problem has 285 variables (285 bin, 0 int, 0 impl, 0 cont) and 295 constraints
     22 constraints of type <knapsack>
     23 constraints of type <linear>
    250 constraints of type <logicor>
transformed objective value is always integral (scale: 1)
Presolving Time: 4.05
transformed 93/100 original solutions to the transformed problem space

 time | node  | left  |LP iter|LP it/n|mem/heur|mdpt |vars |cons |rows |cuts |sepa|confs|strbr|  dualbound   | primalbound  |  gap   | compl. 
 20.0s|     1 |     0 |  6424 |     - |   218M |   0 | 285 | 295 | 295 |   0 |  0 |   3 |   0 | 5.981878e+00 | 1.000000e+01 |  67.17%| unknown
 20.0s|     1 |     0 |  6424 |     - |   218M |   0 | 285 | 295 | 295 |   0 |  0 |   3 |   0 | 5.981878e+00 | 1.000000e+01 |  67.17%| unknown
 20.2s|     1 |     0 |  6443 |     - |   220M |   0 | 285 | 295 | 296 |   1 |  1 |   3 |   0 | 5.982898e+00 | 1.000000e+01 |  67.14%| unknown
 20.4s|     1 |     0 |  6462 |     - |   221M |   0 | 285 | 295 | 297 |   2 |  2 |   3 |   0 | 5.984216e+00 | 1.000000e+01 |  67.11%| unknown
 20.6s|     1 |     0 |  6487 |     - |   224M |   0 | 285 | 295 | 298 |   3 |  3 |   3 |   0 | 5.985681e+00 | 1.000000e+01 |  67.07%| unknown
 20.8s|     1 |     0 |  6505 |     - |   225M |   0 | 285 | 295 | 299 |   4 |  4 |   3 |   0 | 5.987704e+00 | 1.000000e+01 |  67.01%| unknown
 21.1s|     1 |     0 |  6529 |     - |   225M |   0 | 285 | 295 | 300 |   5 |  5 |   3 |   0 | 5.989422e+00 | 1.000000e+01 |  66.96%| unknown
 21.3s|     1 |     0 |  6548 |     - |   227M |   0 | 285 | 295 | 301 |   6 |  6 |   3 |   0 | 5.990443e+00 | 1.000000e+01 |  66.93%| unknown
 21.3s|     1 |     0 |  6548 |     - |   227M |   0 | 285 | 295 | 301 |   6 |  6 |   3 |   0 | 5.990443e+00 | 1.000000e+01 |  66.93%| unknown
 21.5s|     1 |     0 |  6566 |     - |   228M |   0 | 285 | 295 | 302 |   7 |  7 |   3 |   0 | 5.990735e+00 | 1.000000e+01 |  66.92%| unknown
 21.7s|     1 |     0 |  6579 |     - |   230M |   0 | 285 | 295 | 303 |   8 |  8 |   3 |   0 | 5.991145e+00 | 1.000000e+01 |  66.91%| unknown
 21.9s|     1 |     0 |  6601 |     - |   231M |   0 | 285 | 295 | 304 |   9 |  9 |   3 |   0 | 5.991955e+00 | 1.000000e+01 |  66.89%| unknown
 21.9s|     1 |     0 |  6601 |     - |   231M |   0 | 285 | 295 | 304 |   9 |  9 |   3 |   0 | 5.991955e+00 | 1.000000e+01 |  66.89%| unknown
 22.1s|     1 |     0 |  6624 |     - |   231M |   0 | 285 | 295 | 305 |  10 | 10 |   3 |   0 | 5.992489e+00 | 1.000000e+01 |  66.88%| unknown
 22.1s|     1 |     0 |  6624 |     - |   231M |   0 | 285 | 295 | 305 |  10 | 10 |   3 |   0 | 5.992489e+00 | 1.000000e+01 |  66.88%| unknown
 time | node  | left  |LP iter|LP it/n|mem/heur|mdpt |vars |cons |rows |cuts |sepa|confs|strbr|  dualbound   | primalbound  |  gap   | compl. 
 22.2s|     1 |     0 |  6634 |     - |   231M |   0 | 285 | 295 | 289 |  11 | 11 |   3 |   0 | 5.992780e+00 | 1.000000e+01 |  66.87%| unknown
 22.5s|     1 |     0 |  6644 |     - |   231M |   0 | 285 | 295 | 290 |  12 | 12 |   3 |   0 | 5.993010e+00 | 1.000000e+01 |  66.86%| unknown
(run 3, node 1) restarting after 54 global fixings of integer variables

(restart) converted 12 cuts from the global cut pool into linear constraints

presolving:
(round 1, fast)       54 del vars, 0 del conss, 0 add conss, 0 chg bounds, 0 chg sides, 3269 chg coeffs, 0 upgd conss, 0 impls, 0 clqs
   (25.6s) running MILP presolver
   (25.6s) MILP presolver found nothing
(round 2, exhaustive) 54 del vars, 0 del conss, 0 add conss, 0 chg bounds, 0 chg sides, 3269 chg coeffs, 12 upgd conss, 0 impls, 0 clqs
presolving (3 rounds: 3 fast, 2 medium, 2 exhaustive):
 54 deleted vars, 0 deleted constraints, 0 added constraints, 0 tightened bounds, 0 added holes, 0 changed sides, 3269 changed coefficients
 0 implications, 0 cliques
presolved problem has 231 variables (231 bin, 0 int, 0 impl, 0 cont) and 309 constraints
     34 constraints of type <knapsack>
     23 constraints of type <linear>
    252 constraints of type <logicor>
transformed objective value is always integral (scale: 1)
Presolving Time: 5.68
transformed 82/100 original solutions to the transformed problem space

 time | node  | left  |LP iter|LP it/n|mem/heur|mdpt |vars |cons |rows |cuts |sepa|confs|strbr|  dualbound   | primalbound  |  gap   | compl. 
 27.1s|     1 |     0 |  9526 |     - |   224M |   0 | 231 | 309 | 307 |   0 |  0 |   6 |   0 | 5.993010e+00 | 1.000000e+01 |  66.86%| unknown
 27.2s|     1 |     0 |  9598 |     - |   224M |   0 | 231 | 309 | 308 |   1 |  1 |   6 |   0 | 5.996290e+00 | 1.000000e+01 |  66.77%| unknown
 27.4s|     1 |     0 |  9631 |     - |   224M |   0 | 231 | 309 | 309 |   2 |  2 |   6 |   0 | 5.998862e+00 | 1.000000e+01 |  66.70%| unknown
 27.6s|     1 |     0 |  9655 |     - |   225M |   0 | 231 | 309 | 310 |   3 |  3 |   6 |   0 | 5.999197e+00 | 1.000000e+01 |  66.69%| unknown
 27.7s|     1 |     0 |  9655 |     - |   225M |   0 | 231 | 309 | 310 |   3 |  3 |   6 |   0 | 5.999197e+00 | 1.000000e+01 |  66.69%| unknown
 27.9s|     1 |     0 |  9732 |     - |   225M |   0 | 231 | 309 | 311 |   4 |  4 |   6 |   0 | 6.002239e+00 | 1.000000e+01 |  66.60%| unknown
 28.1s|     1 |     0 |  9775 |     - |   228M |   0 | 231 | 309 | 312 |   5 |  5 |   6 |   0 | 6.003863e+00 | 1.000000e+01 |  66.56%| unknown
 28.1s|     1 |     0 |  9775 |     - |   228M |   0 | 231 | 309 | 312 |   5 |  5 |   6 |   0 | 6.003863e+00 | 1.000000e+01 |  66.56%| unknown
 28.4s|     1 |     0 |  9806 |     - |   228M |   0 | 231 | 309 | 313 |   6 |  6 |   6 |   0 | 6.004410e+00 | 1.000000e+01 |  66.54%| unknown
 28.8s|     1 |     0 |  9834 |     - |   229M |   0 | 231 | 309 | 314 |   7 |  7 |   6 |   0 | 6.004799e+00 | 1.000000e+01 |  66.53%| unknown
 29.0s|     1 |     0 |  9856 |     - |   231M |   0 | 231 | 309 | 315 |   8 |  8 |   6 |   0 | 6.004917e+00 | 1.000000e+01 |  66.53%| unknown
 29.2s|     1 |     0 |  9910 |     - |   232M |   0 | 231 | 309 | 316 |   9 |  9 |   6 |   0 | 6.005746e+00 | 1.000000e+01 |  66.51%| unknown
 29.2s|     1 |     0 |  9910 |     - |   232M |   0 | 231 | 309 | 316 |   9 |  9 |   6 |   0 | 6.005746e+00 | 1.000000e+01 |  66.51%| unknown
 29.4s|     1 |     0 | 10000 |     - |   234M |   0 | 231 | 309 | 297 |  10 | 10 |   6 |   0 | 6.007851e+00 | 1.000000e+01 |  66.45%| unknown
 29.5s|     1 |     0 | 10019 |     - |   234M |   0 | 231 | 309 | 298 |  11 | 11 |   6 |   0 | 6.008036e+00 | 1.000000e+01 |  66.44%| unknown
 time | node  | left  |LP iter|LP it/n|mem/heur|mdpt |vars |cons |rows |cuts |sepa|confs|strbr|  dualbound   | primalbound  |  gap   | compl. 
 29.7s|     1 |     0 | 10056 |     - |   234M |   0 | 231 | 309 | 299 |  12 | 12 |   6 |   0 | 6.009342e+00 | 1.000000e+01 |  66.41%| unknown
 29.9s|     1 |     0 | 10071 |     - |   234M |   0 | 231 | 309 | 300 |  13 | 13 |   6 |   0 | 6.009761e+00 | 1.000000e+01 |  66.40%| unknown
 30.0s|     1 |     0 | 10097 |     - |   234M |   0 | 231 | 309 | 301 |  14 | 14 |   6 |   0 | 6.010181e+00 | 1.000000e+01 |  66.38%| unknown
 30.1s|     1 |     0 | 10118 |     - |   234M |   0 | 231 | 309 | 302 |  15 | 15 |   6 |   0 | 6.010352e+00 | 1.000000e+01 |  66.38%| unknown
 30.3s|     1 |     0 | 10136 |     - |   234M |   0 | 231 | 309 | 298 |  16 | 16 |   6 |   0 | 6.010491e+00 | 1.000000e+01 |  66.38%| unknown
 30.4s|     1 |     0 | 10149 |     - |   234M |   0 | 231 | 309 | 299 |  17 | 17 |   6 |   0 | 6.010633e+00 | 1.000000e+01 |  66.37%| unknown
 30.5s|     1 |     0 | 10166 |     - |   234M |   0 | 231 | 309 | 300 |  18 | 18 |   6 |   0 | 6.010714e+00 | 1.000000e+01 |  66.37%| unknown
 30.5s|     1 |     0 | 10179 |     - |   234M |   0 | 231 | 309 | 301 |  19 | 19 |   6 |   0 | 6.010752e+00 | 1.000000e+01 |  66.37%| unknown
 30.6s|     1 |     0 | 10187 |     - |   234M |   0 | 231 | 309 | 302 |  20 | 20 |   6 |   0 | 6.010778e+00 | 1.000000e+01 |  66.37%| unknown
 30.7s|     1 |     0 | 10195 |     - |   234M |   0 | 231 | 309 | 303 |  21 | 21 |   6 |   0 | 6.010805e+00 | 1.000000e+01 |  66.37%| unknown
 30.8s|     1 |     0 | 10201 |     - |   234M |   0 | 231 | 309 | 288 |  22 | 22 |   6 |   0 | 6.010813e+00 | 1.000000e+01 |  66.37%| unknown
 32.4s|     1 |     2 | 11575 |     - |   234M |   0 | 231 | 309 | 288 |  22 | 22 |   7 |  13 | 6.070545e+00 | 1.000000e+01 |  64.73%| unknown
 36.4s|   100 |    45 | 20575 | 165.3 |   247M |  17 | 231 | 417 | 283 |  66 |  1 | 116 | 292 | 6.522663e+00 | 1.000000e+01 |  53.31%|   6.97%
 39.3s|   200 |    99 | 29841 | 129.3 |   248M |  21 | 231 | 459 | 283 | 110 |  2 | 159 | 367 | 6.732062e+00 | 1.000000e+01 |  48.54%|  12.06%
 41.6s|   300 |   193 | 41055 | 123.6 |   248M |  24 | 231 | 480 | 278 | 152 |  1 | 183 | 387 | 7.074667e+00 | 1.000000e+01 |  41.35%|  17.53%
 time | node  | left  |LP iter|LP it/n|mem/heur|mdpt |vars |cons |rows |cuts |sepa|confs|strbr|  dualbound   | primalbound  |  gap   | compl. 
 43.9s|   400 |   277 | 50843 | 117.2 |   248M |  28 | 231 | 498 | 278 | 192 |  1 | 204 | 399 | 7.345577e+00 | 1.000000e+01 |  36.14%|  21.34%
 46.8s|   500 |   357 | 61205 | 114.5 |   250M |  28 | 231 | 522 | 283 | 272 |  0 | 230 | 408 | 7.372723e+00 | 1.000000e+01 |  35.64%|  21.72%
 48.0s|   600 |   403 | 68961 | 108.4 |   251M |  30 | 231 | 539 | 285 | 290 |  1 | 249 | 431 | 7.392146e+00 | 1.000000e+01 |  35.28%|  22.83%
 49.4s|   700 |   439 | 75154 | 101.8 |   251M |  30 | 231 | 549 | 283 | 332 |  0 | 259 | 440 | 7.446497e+00 | 1.000000e+01 |  34.29%|  24.00%
 50.6s|   800 |   469 | 80600 |  95.9 |   251M |  30 | 231 | 553 | 288 | 361 |  1 | 265 | 444 | 7.553826e+00 | 1.000000e+01 |  32.38%|  27.04%
 51.8s|   900 |   497 | 85768 |  91.0 |   251M |  30 | 231 | 558 | 279 | 385 |  0 | 270 | 448 | 7.572402e+00 | 1.000000e+01 |  32.06%|  27.77%
 53.0s|  1000 |   525 | 91322 |  87.4 |   252M |  30 | 231 | 561 | 287 | 417 |  1 | 273 | 451 | 7.596445e+00 | 1.000000e+01 |  31.64%|  29.64%
 54.8s|  1100 |   553 | 96778 |  84.4 |   254M |  30 | 231 | 562 | 283 | 466 |  1 | 274 | 453 | 7.596445e+00 | 1.000000e+01 |  31.64%|  30.02%
 56.0s|  1200 |   587 |102338 |  82.0 |   254M |  30 | 231 | 566 | 283 | 503 |  1 | 279 | 456 | 7.648929e+00 | 1.000000e+01 |  30.74%|  31.12%
 57.9s|  1300 |   623 |108894 |  80.8 |   254M |  30 | 231 | 571 | 283 | 566 |  6 | 284 | 460 | 7.661805e+00 | 1.000000e+01 |  30.52%|  31.85%
 59.5s|  1400 |   651 |113978 |  78.6 |   254M |  30 | 231 | 579 | 278 | 597 |  1 | 292 | 467 | 7.760051e+00 | 1.000000e+01 |  28.87%|  33.13%
 60.8s|  1500 |   673 |118854 |  76.7 |   254M |  30 | 231 | 584 | 283 | 644 |  0 | 297 | 471 | 7.818056e+00 | 1.000000e+01 |  27.91%|  34.93%
 62.4s|  1600 |   707 |124481 |  75.4 |   256M |  30 | 231 | 593 | 283 | 685 |  1 | 308 | 476 | 7.873525e+00 | 1.000000e+01 |  27.01%|  36.30%
 63.3s|  1700 |   727 |129109 |  73.7 |   256M |  30 | 231 | 606 | 283 | 696 |  0 | 321 | 487 | 7.882441e+00 | 1.000000e+01 |  26.86%|  36.66%
 64.0s|  1800 |   753 |133398 |  72.0 |   256M |  30 | 231 | 608 | 283 | 710 |  1 | 323 | 489 | 7.904129e+00 | 1.000000e+01 |  26.52%|  37.24%
 time | node  | left  |LP iter|LP it/n|mem/heur|mdpt |vars |cons |rows |cuts |sepa|confs|strbr|  dualbound   | primalbound  |  gap   | compl. 
 65.0s|  1900 |   777 |138110 |  70.7 |   257M |  30 | 231 | 608 | 283 | 743 |  1 | 323 | 490 | 7.913319e+00 | 1.000000e+01 |  26.37%|  37.81%
 65.7s|  2000 |   799 |142591 |  69.4 |   258M |  30 | 231 | 617 | 283 | 756 |  0 | 332 | 496 | 7.929880e+00 | 1.000000e+01 |  26.11%|  38.40%
 66.8s|  2100 |   809 |147464 |  68.4 |   258M |  30 | 231 | 617 | 283 | 786 |  0 | 333 | 498 | 7.945618e+00 | 1.000000e+01 |  25.86%|  39.22%
 67.9s|  2200 |   823 |152402 |  67.5 |   259M |  30 | 231 | 617 | 278 | 824 |  1 | 333 | 498 | 7.953338e+00 | 1.000000e+01 |  25.73%|  40.22%
 69.2s|  2300 |   835 |157116 |  66.6 |   262M |  30 | 231 | 620 | 283 | 866 |  1 | 338 | 502 | 7.975650e+00 | 1.000000e+01 |  25.38%|  41.05%
 69.9s|  2400 |   843 |161023 |  65.5 |   262M |  30 | 231 | 620 | 283 | 883 |  1 | 340 | 504 | 7.993820e+00 | 1.000000e+01 |  25.10%|  42.53%
 70.5s|  2500 |   867 |164938 |  64.4 |   262M |  30 | 231 | 624 | 278 | 894 |  1 | 344 | 504 | 8.007312e+00 | 1.000000e+01 |  24.89%|  43.43%
 71.4s|  2600 |   881 |169215 |  63.6 |   264M |  30 | 231 | 628 | 283 | 917 |  1 | 348 | 508 | 8.014751e+00 | 1.000000e+01 |  24.77%|  44.10%
 72.3s|  2700 |   887 |173195 |  62.7 |   264M |  30 | 231 | 630 | 278 | 947 |  0 | 351 | 509 | 8.037746e+00 | 1.000000e+01 |  24.41%|  45.04%
 73.2s|  2800 |   903 |177486 |  62.0 |   264M |  30 | 231 | 629 | 283 | 974 |  1 | 355 | 513 | 8.068275e+00 | 1.000000e+01 |  23.94%|  45.81%
 74.0s|  2900 |   917 |181485 |  61.3 |   264M |  30 | 231 | 627 | 283 | 997 |  1 | 357 | 516 | 8.070806e+00 | 1.000000e+01 |  23.90%|  46.18%
 74.8s|  3000 |   927 |185214 |  60.5 |   264M |  30 | 231 | 626 | 283 |1019 |  6 | 357 | 516 | 8.070806e+00 | 1.000000e+01 |  23.90%|  46.41%
 75.5s|  3100 |   939 |189033 |  59.7 |   265M |  30 | 231 | 629 | 278 |1038 |  0 | 360 | 519 | 8.074155e+00 | 1.000000e+01 |  23.85%|  46.59%
 75.9s|  3200 |   947 |192534 |  59.0 |   265M |  30 | 231 | 629 | 283 |1043 |  0 | 361 | 520 | 8.074155e+00 | 1.000000e+01 |  23.85%|  47.18%
 76.7s|  3300 |   953 |196492 |  58.4 |   267M |  30 | 231 | 630 | 288 |1057 |  1 | 365 | 525 | 8.078568e+00 | 1.000000e+01 |  23.78%|  47.59%
 time | node  | left  |LP iter|LP it/n|mem/heur|mdpt |vars |cons |rows |cuts |sepa|confs|strbr|  dualbound   | primalbound  |  gap   | compl. 
 77.5s|  3400 |   963 |200454 |  57.8 |   268M |  30 | 231 | 631 | 288 |1079 |  6 | 367 | 525 | 8.081832e+00 | 1.000000e+01 |  23.73%|  48.03%
 78.1s|  3500 |   979 |204489 |  57.3 |   268M |  30 | 231 | 632 | 279 |1091 |  1 | 371 | 529 | 8.094351e+00 | 1.000000e+01 |  23.54%|  48.59%
 78.7s|  3600 |   983 |208147 |  56.8 |   270M |  30 | 231 | 632 | 278 |1104 |  0 | 374 | 533 | 8.094351e+00 | 1.000000e+01 |  23.54%|  48.72%
 79.5s|  3700 |   989 |211998 |  56.3 |   270M |  30 | 231 | 633 | 283 |1125 |  1 | 378 | 539 | 8.110800e+00 | 1.000000e+01 |  23.29%|  49.53%
 79.8s|  3800 |   995 |215278 |  55.6 |   270M |  30 | 231 | 636 | 284 |1125 |  1 | 385 | 546 | 8.128871e+00 | 1.000000e+01 |  23.02%|  50.82%
 80.4s|  3900 |  1001 |218982 |  55.2 |   270M |  30 | 231 | 635 | 278 |1131 |  1 | 387 | 547 | 8.167710e+00 | 1.000000e+01 |  22.43%|  51.62%
 81.1s|  4000 |  1009 |222954 |  54.8 |   270M |  30 | 231 | 634 | 282 |1140 |  1 | 388 | 550 | 8.167710e+00 | 1.000000e+01 |  22.43%|  51.97%
 81.8s|  4100 |  1009 |226194 |  54.2 |   270M |  30 | 231 | 632 | 283 |1162 |  1 | 388 | 550 | 8.177322e+00 | 1.000000e+01 |  22.29%|  52.40%
 83.1s|  4200 |  1013 |230298 |  53.9 |   272M |  30 | 231 | 631 | 284 |1205 |  7 | 390 | 551 | 8.188850e+00 | 1.000000e+01 |  22.12%|  53.06%
 83.8s|  4300 |  1011 |233750 |  53.5 |   272M |  31 | 231 | 638 | 282 |1217 |  0 | 397 | 559 | 8.188850e+00 | 1.000000e+01 |  22.12%|  53.19%
 84.4s|  4400 |  1011 |237393 |  53.1 |   272M |  31 | 231 | 642 | 283 |1232 |  1 | 403 | 562 | 8.208744e+00 | 1.000000e+01 |  21.82%|  54.49%
 85.2s|  4500 |  1007 |241268 |  52.8 |   272M |  31 | 231 | 655 | 282 |1257 |  0 | 417 | 576 | 8.226480e+00 | 1.000000e+01 |  21.56%|  54.94%
*85.5s|  4541 |     0 |242639 |  52.6 |    LP  |  31 | 231 | 310 | 279 |1265 |  2 | 417 | 577 | 9.000000e+00 | 9.000000e+00 |   0.00%|  99.96%

SCIP Status        : problem is solved [optimal solution found]
Solving Time (sec) : 85.46
Solving Nodes      : 4541 (total of 4544 nodes in 4 runs)
Primal Bound       : +9.00000000000000e+00 (693 solutions)
Dual Bound         : +9.00000000000000e+00
Gap                : 0.00 %
Solve Status: optimal
Solve Time: 85.48 seconds
